p edge 100 990
e 1 3
e 1 5
e 1 12
e 1 13
e 1 14
e 1 20
e 1 21
e 1 23
e 1 24
e 1 28
e 1 30
e 1 50
e 1 51
e 1 52
e 1 58
e 1 60
e 1 76
e 1 77
e 1 80
e 1 86
e 1 97
e 2 5
e 2 12
e 2 21
e 2 28
e 2 45
e 2 47
e 2 52
e 2 53
e 2 64
e 2 66
e 2 70
e 2 71
e 2 74
e 2 79
e 2 83
e 2 86
e 2 87
e 2 93
e 2 95
e 3 7
e 3 9
e 3 13
e 3 22
e 3 24
e 3 25
e 3 30
e 3 31
e 3 32
e 3 41
e 3 48
e 3 49
e 3 55
e 3 60
e 3 64
e 3 68
e 3 73
e 3 79
e 3 80
e 3 86
e 3 89
e 3 90
e 3 98
e 3 99
e 4 5
e 4 15
e 4 18
e 4 22
e 4 24
e 4 27
e 4 30
e 4 37
e 4 42
e 4 46
e 4 51
e 4 58
e 4 59
e 4 63
e 4 64
e 4 66
e 4 71
e 4 79
e 4 80
e 4 85
e 4 93
e 4 98
e 4 100
e 5 11
e 5 24
e 5 25
e 5 28
e 5 38
e 5 45
e 5 50
e 5 51
e 5 61
e 5 66
e 5 78
e 5 82
e 5 84
e 5 86
e 5 88
e 5 90
e 5 94
e 5 100
e 6 7
e 6 13
e 6 15
e 6 21
e 6 24
e 6 26
e 6 34
e 6 35
e 6 40
e 6 41
e 6 47
e 6 53
e 6 56
e 6 61
e 6 62
e 6 70
e 6 74
e 6 75
e 6 78
e 6 82
e 6 94
e 7 9
e 7 11
e 7 30
e 7 31
e 7 35
e 7 38
e 7 39
e 7 45
e 7 47
e 7 54
e 7 68
e 7 69
e 7 79
e 7 81
e 7 82
e 8 15
e 8 20
e 8 22
e 8 32
e 8 56
e 8 60
e 8 64
e 8 67
e 8 68
e 8 71
e 8 93
e 9 14
e 9 16
e 9 17
e 9 22
e 9 23
e 9 24
e 9 27
e 9 32
e 9 34
e 9 41
e 9 42
e 9 56
e 9 64
e 9 75
e 9 80
e 9 84
e 9 96
e 10 13
e 10 14
e 10 15
e 10 18
e 10 22
e 10 24
e 10 28
e 10 36
e 10 39
e 10 45
e 10 49
e 10 54
e 10 56
e 10 58
e 10 68
e 10 74
e 10 79
e 10 91
e 11 14
e 11 17
e 11 20
e 11 22
e 11 26
e 11 29
e 11 36
e 11 38
e 11 41
e 11 48
e 11 49
e 11 67
e 11 68
e 11 75
e 11 80
e 11 85
e 11 86
e 11 87
e 11 91
e 12 22
e 12 24
e 12 28
e 12 40
e 12 41
e 12 42
e 12 45
e 12 48
e 12 56
e 12 60
e 12 74
e 12 75
e 12 76
e 12 77
e 12 79
e 12 85
e 12 86
e 12 87
e 12 88
e 12 93
e 12 95
e 12 97
e 12 99
e 13 16
e 13 18
e 13 20
e 13 21
e 13 28
e 13 29
e 13 33
e 13 40
e 13 55
e 13 59
e 13 62
e 13 69
e 13 79
e 13 80
e 13 85
e 13 86
e 13 91
e 13 92
e 13 93
e 13 100
e 14 15
e 14 18
e 14 19
e 14 20
e 14 24
e 14 27
e 14 39
e 14 42
e 14 44
e 14 56
e 14 62
e 14 63
e 14 64
e 14 66
e 14 71
e 14 77
e 14 91
e 14 93
e 14 100
e 15 18
e 15 19
e 15 23
e 15 26
e 15 29
e 15 34
e 15 37
e 15 41
e 15 43
e 15 48
e 15 60
e 15 65
e 15 67
e 15 72
e 15 76
e 15 78
e 15 81
e 15 93
e 16 21
e 16 30
e 16 31
e 16 32
e 16 34
e 16 35
e 16 40
e 16 45
e 16 52
e 16 53
e 16 70
e 16 76
e 16 85
e 16 86
e 16 94
e 16 97
e 16 100
e 17 27
e 17 36
e 17 49
e 17 50
e 17 56
e 17 66
e 17 74
e 17 85
e 17 86
e 17 93
e 17 97
e 18 19
e 18 23
e 18 28
e 18 29
e 18 30
e 18 34
e 18 48
e 18 53
e 18 61
e 18 78
e 18 84
e 18 86
e 18 87
e 18 96
e 18 99
e 19 20
e 19 23
e 19 31
e 19 41
e 19 43
e 19 54
e 19 67
e 19 72
e 19 79
e 19 82
e 19 90
e 19 93
e 19 100
e 20 24
e 20 25
e 20 35
e 20 40
e 20 57
e 20 71
e 20 83
e 21 26
e 21 27
e 21 29
e 21 30
e 21 37
e 21 46
e 21 47
e 21 48
e 21 49
e 21 50
e 21 51
e 21 55
e 21 57
e 21 61
e 21 62
e 21 67
e 21 68
e 21 70
e 21 76
e 21 79
e 21 91
e 21 93
e 21 100
e 22 26
e 22 38
e 22 45
e 22 58
e 22 59
e 22 63
e 22 78
e 22 82
e 22 85
e 22 93
e 23 27
e 23 31
e 23 32
e 23 35
e 23 41
e 23 47
e 23 49
e 23 50
e 23 52
e 23 61
e 23 75
e 23 76
e 23 77
e 23 84
e 23 86
e 23 92
e 23 99
e 24 29
e 24 40
e 24 46
e 24 57
e 24 58
e 24 59
e 24 64
e 24 66
e 24 67
e 24 69
e 24 70
e 24 86
e 24 93
e 24 94
e 24 95
e 24 100
e 25 33
e 25 39
e 25 44
e 25 54
e 25 57
e 25 60
e 25 65
e 25 79
e 25 82
e 25 88
e 25 94
e 25 100
e 26 44
e 26 51
e 26 52
e 26 62
e 26 63
e 26 84
e 26 88
e 26 89
e 26 90
e 26 98
e 26 99
e 27 28
e 27 31
e 27 37
e 27 40
e 27 43
e 27 47
e 27 48
e 27 49
e 27 68
e 27 77
e 27 80
e 27 82
e 27 84
e 27 89
e 27 96
e 27 99
e 28 29
e 28 33
e 28 34
e 28 52
e 28 57
e 28 61
e 28 63
e 28 65
e 28 71
e 28 74
e 28 82
e 28 85
e 28 92
e 29 35
e 29 45
e 29 57
e 29 71
e 29 80
e 29 88
e 29 90
e 29 92
e 29 93
e 29 96
e 30 33
e 30 42
e 30 45
e 30 50
e 30 59
e 30 61
e 30 64
e 30 69
e 30 71
e 30 78
e 30 80
e 30 81
e 30 86
e 30 89
e 30 91
e 30 92
e 30 94
e 30 100
e 31 32
e 31 33
e 31 36
e 31 38
e 31 40
e 31 46
e 31 50
e 31 61
e 31 64
e 31 69
e 31 84
e 31 85
e 31 91
e 31 92
e 31 93
e 31 94
e 31 98
e 31 99
e 32 45
e 32 50
e 32 53
e 32 56
e 32 58
e 32 72
e 32 74
e 32 78
e 32 79
e 32 80
e 32 82
e 32 87
e 32 90
e 32 91
e 32 93
e 32 97
e 32 100
e 33 36
e 33 43
e 33 48
e 33 50
e 33 51
e 33 57
e 33 59
e 33 61
e 33 83
e 33 88
e 33 91
e 33 95
e 33 97
e 34 38
e 34 42
e 34 50
e 34 56
e 34 62
e 34 65
e 34 66
e 34 73
e 34 83
e 34 86
e 34 87
e 34 89
e 34 93
e 34 95
e 35 40
e 35 41
e 35 78
e 35 79
e 35 82
e 35 85
e 35 95
e 35 100
e 36 38
e 36 43
e 36 47
e 36 55
e 36 62
e 36 63
e 36 64
e 36 69
e 36 70
e 36 71
e 36 73
e 36 77
e 36 79
e 36 87
e 36 90
e 36 91
e 36 94
e 37 45
e 37 49
e 37 57
e 37 58
e 37 65
e 37 69
e 37 74
e 37 78
e 37 88
e 37 95
e 38 41
e 38 50
e 38 59
e 38 69
e 38 72
e 38 86
e 38 87
e 38 91
e 38 93
e 38 97
e 38 100
e 39 48
e 39 54
e 39 57
e 39 58
e 39 67
e 39 68
e 39 72
e 39 85
e 39 95
e 39 97
e 40 49
e 40 55
e 40 65
e 40 66
e 40 72
e 40 78
e 40 81
e 40 83
e 40 88
e 40 90
e 40 94
e 41 43
e 41 44
e 41 57
e 41 61
e 41 64
e 41 66
e 41 70
e 41 71
e 41 72
e 41 73
e 41 74
e 41 80
e 41 81
e 41 91
e 42 46
e 42 71
e 42 72
e 42 82
e 42 86
e 43 48
e 43 54
e 43 55
e 43 57
e 43 59
e 43 64
e 43 76
e 43 80
e 43 88
e 43 96
e 43 99
e 44 69
e 44 82
e 44 95
e 44 96
e 45 53
e 45 64
e 45 65
e 45 75
e 45 83
e 45 84
e 45 93
e 45 95
e 45 99
e 46 49
e 46 51
e 46 56
e 46 59
e 46 70
e 46 73
e 46 74
e 46 87
e 46 92
e 47 54
e 47 56
e 47 63
e 47 65
e 47 69
e 47 97
e 48 51
e 48 56
e 48 60
e 48 66
e 48 69
e 48 70
e 48 72
e 48 75
e 48 88
e 48 92
e 48 100
e 49 58
e 49 69
e 49 76
e 49 79
e 49 87
e 49 89
e 49 90
e 49 92
e 49 93
e 49 100
e 50 74
e 50 75
e 50 83
e 50 88
e 50 94
e 50 97
e 50 100
e 51 52
e 51 53
e 51 72
e 51 73
e 51 76
e 51 80
e 51 81
e 51 83
e 51 87
e 51 89
e 51 91
e 51 92
e 51 94
e 52 54
e 52 58
e 52 62
e 52 66
e 52 72
e 52 74
e 52 76
e 52 78
e 52 82
e 52 85
e 52 92
e 53 56
e 53 57
e 53 58
e 53 60
e 53 63
e 53 66
e 53 67
e 53 69
e 53 82
e 53 84
e 53 85
e 53 87
e 53 98
e 53 99
e 54 62
e 54 78
e 54 81
e 54 84
e 54 85
e 54 86
e 54 87
e 55 61
e 55 66
e 55 67
e 55 72
e 55 77
e 55 84
e 55 89
e 56 61
e 56 62
e 56 66
e 56 70
e 56 76
e 56 84
e 56 86
e 56 87
e 56 88
e 56 89
e 56 94
e 56 97
e 56 99
e 56 100
e 57 62
e 57 63
e 57 69
e 57 73
e 57 79
e 57 80
e 57 83
e 57 87
e 57 89
e 58 61
e 58 66
e 58 70
e 58 71
e 58 75
e 58 81
e 58 92
e 58 98
e 59 60
e 59 61
e 59 63
e 59 66
e 59 69
e 59 73
e 59 75
e 59 80
e 59 82
e 59 86
e 59 90
e 59 91
e 59 92
e 59 95
e 59 100
e 60 65
e 60 66
e 60 69
e 60 72
e 60 76
e 60 78
e 60 90
e 60 91
e 60 93
e 60 98
e 61 63
e 61 69
e 61 76
e 61 81
e 61 87
e 61 89
e 61 93
e 61 100
e 62 70
e 62 77
e 62 79
e 62 80
e 62 90
e 62 91
e 62 94
e 62 95
e 62 99
e 63 69
e 63 74
e 63 83
e 63 90
e 63 91
e 63 94
e 63 97
e 64 74
e 64 78
e 64 81
e 64 93
e 64 94
e 64 99
e 65 66
e 65 67
e 65 69
e 65 76
e 65 95
e 65 96
e 65 100
e 66 73
e 66 76
e 66 90
e 66 94
e 67 73
e 67 74
e 67 76
e 67 80
e 67 91
e 67 94
e 67 98
e 67 100
e 68 72
e 68 76
e 68 79
e 68 82
e 68 85
e 68 88
e 68 89
e 68 99
e 69 70
e 69 71
e 69 72
e 69 76
e 69 83
e 69 85
e 69 89
e 69 94
e 69 95
e 70 72
e 70 75
e 70 76
e 70 78
e 70 79
e 70 85
e 70 95
e 71 74
e 71 77
e 71 83
e 71 85
e 71 90
e 72 79
e 72 80
e 72 81
e 72 83
e 73 74
e 73 75
e 73 80
e 73 81
e 73 82
e 73 91
e 73 95
e 73 97
e 74 78
e 74 82
e 74 83
e 74 85
e 74 96
e 74 97
e 74 99
e 74 100
e 75 76
e 75 92
e 75 94
e 75 97
e 76 79
e 76 80
e 76 86
e 76 90
e 76 93
e 76 98
e 76 100
e 77 83
e 77 91
e 77 95
e 77 97
e 78 80
e 78 90
e 78 91
e 78 99
e 79 80
e 79 84
e 79 86
e 80 83
e 80 91
e 80 100
e 81 88
e 81 92
e 81 93
e 81 100
e 82 87
e 82 95
e 82 99
e 83 85
e 83 87
e 83 96
e 83 98
e 83 100
e 84 88
e 84 92
e 84 97
e 85 93
e 85 97
e 85 98
e 86 90
e 86 93
e 87 89
e 87 92
e 87 99
e 87 100
e 88 93
e 88 94
e 88 95
e 88 96
e 88 98
e 88 100
e 89 92
e 89 93
e 89 94
e 89 96
e 89 98
e 90 95
e 90 98
e 90 99
e 91 92
e 91 94
e 92 95
e 93 94
e 93 98
e 94 95
e 95 96
e 96 97
e 97 98
e 97 100
e 99 100
